\ENCODING=ISO-8859-1
\Problem name: ilog.cplex

Minimize
 obj1: 103940 x1 + 100885 x2 + 100335 x3 + 93754 x4 + 99517 x5 + 108821 x6
       + 91493 x7 + 100389 x8 + 92877 x9 + 102279 x10 + 98662 x11 + 92553 x12
       + 106809 x13 + 94410 x14 + 100778 x15 + 104588 x16 + 105752 x17
       + 104928 x18 + 103191 x19 + 91786 x20 + 93073 x21 + 101510 x22
       + 106561 x23 + 95396 x24 + 107011 x25 + 104709 x26 + 92655 x27
       + 93411 x28 + 98748 x29 + 104022 x30 + 94539 x31 + 109159 x32
       + 105470 x33 + 109145 x34 + 93293 x35 + 103939 x36 + 96281 x37
       + 97543 x38 + 103765 x39 + 104825 x40 + 109507 x41 + 97099 x42
       + 97813 x43 + 94235 x44 + 96174 x45 + 100924 x46 + 105066 x47
       + 93980 x48 + 96334 x49 + 90344 x50 + 108448 x51 + 93248 x52
       + 102470 x53 + 101612 x54 + 94543 x55 + 97343 x56 + 107303 x57
       + 92075 x58 + 107321 x59 + 91976 x60 + 106541 x61 + 106209 x62
       + 92437 x63 + 102322 x64 + 99012 x65 + 97731 x66 + 91812 x67
       + 105983 x68 + 95003 x69 + 102527 x70 + 106162 x71 + 101694 x72
       + 93987 x73 + 97995 x74 + 106757 x75 + 108194 x76 + 106792 x77
       + 106555 x78 + 92382 x79 + 95533 x80 + 90249 x81 + 105525 x82
       + 98270 x83 + 92880 x84 + 97199 x85 + 108391 x86 + 91699 x87
       + 107409 x88 + 103088 x89 + 106271 x90 + 99678 x91 + 92008 x92
       + 103947 x93 + 97729 x94 + 100590 x95 + 104312 x96 + 104861 x97
       + 90133 x98 + 98716 x99 + 109855 x100 + 92808 x101 + 106395 x102
       + 108224 x103 + 98111 x104 + 93322 x105 + 97181 x106 + 101519 x107
       + 101759 x108 + 106480 x109 + 100606 x110 + 105775 x111 + 96755 x112
       + 104496 x113 + 108924 x114 + 101018 x115 + 93559 x116 + 90543 x117
       + 94873 x118 + 103300 x119 + 108395 x120 + 107450 x121 + 95328 x122
       + 104538 x123 + 94266 x124 + 106644 x125 + 95115 x126 + 103454 x127
       + 102662 x128 + 104952 x129 + 97513 x130 + 98860 x131 + 92802 x132
       + 90174 x133 + 98996 x134 + 92852 x135 + 108472 x136 + 102685 x137
       + 90301 x138 + 101636 x139 + 93760 x140 + 94850 x141 + 103260 x142
       + 99392 x143 + 97190 x144 + 101666 x145 + 95976 x146 + 91289 x147
       + 90650 x148 + 101615 x149 + 90361 x150 + 109739 x151 + 106357 x152
       + 95824 x153 + 99691 x154 + 97381 x155 + 91543 x156 + 108311 x157
       + 98034 x158 + 105282 x159 + 97587 x160 + 90440 x161 + 108303 x162
       + 95514 x163 + 98004 x164 + 98661 x165 + 101155 x166 + 93518 x167
       + 107989 x168 + 106208 x169 + 103084 x170 + 107559 x171 + 97152 x172
       + 106594 x173 + 108768 x174 + 100116 x175 + 106625 x176 + 109634 x177
       + 100142 x178 + 99168 x179 + 101903 x180 + 93569 x181 + 95459 x182
       + 97376 x183 + 91536 x184 + 99496 x185 + 106026 x186 + 108408 x187
       + 99758 x188 + 104159 x189 + 91824 x190 + 91788 x191 + 109341 x192
       + 93363 x193 + 109382 x194 + 96477 x195 + 97248 x196 + 106010 x197
       + 103869 x198 + 95995 x199 + 91846 x200 + 108430 x201 + 91413 x202
       + 92594 x203 + 92171 x204 + 101374 x205 + 96475 x206 + 107751 x207
       + 99087 x208 + 94927 x209 + 103586 x210 + 105826 x211 + 97742 x212
       + 92415 x213 + 101854 x214 + 91321 x215 + 90120 x216 + 90780 x217
       + 105333 x218 + 104447 x219 + 91498 x220 + 91989 x221 + 102685 x222
       + 94530 x223 + 95268 x224 + 107667 x225 + 105539 x226 + 96317 x227
       + 96852 x228 + 107499 x229 + 106499 x230 + 90312 x231 + 109333 x232
       + 90820 x233 + 105002 x234 + 95058 x235 + 100947 x236 + 90408 x237
       + 92020 x238 + 96594 x239 + 97713 x240 + 103276 x241 + 108979 x242
       + 93168 x243 + 93334 x244 + 92388 x245 + 105210 x246 + 96728 x247
       + 109680 x248 + 94521 x249 + 106835 x250 + 91415 x251 + 100557 x252
       + 99718 x253 + 101793 x254 + 105090 x255 + 99851 x256 + 90055 x257
       + 94901 x258 + 92207 x259 + 106191 x260 + 107019 x261 + 102374 x262
       + 97933 x263 + 109621 x264 + 107571 x265 + 109325 x266 + 106159 x267
       + 97565 x268 + 99860 x269 + 93334 x270 + 91031 x271 + 99755 x272
       + 103287 x273 + 92932 x274 + 100710 x275 + 95362 x276 + 107032 x277
       + 96344 x278 + 96765 x279 + 99846 x280 + 106173 x281 + 102810 x282
       + 92958 x283 + 93883 x284 + 95156 x285 + 106537 x286 + 103117 x287
       + 92222 x288 + 94672 x289 + 91599 x290 + 99372 x291 + 96436 x292
       + 99866 x293 + 105052 x294 + 99272 x295 + 92275 x296 + 105339 x297
       + 95057 x298 + 103076 x299 + 99681 x300 + 101530 x301 + 107886 x302
       + 103485 x303 + 104422 x304 + 105758 x305 + 90485 x306 + 103068 x307
       + 94173 x308 + 94790 x309 + 106054 x310 + 99592 x311 + 105550 x312
       + 106031 x313 + 99646 x314 + 105449 x315 + 99182 x316 + 107684 x317
       + 108783 x318 + 90372 x319 + 104626 x320 + 105269 x321 + 91601 x322
       + 98807 x323 + 105190 x324 + 95941 x325 + 101137 x326 + 105575 x327
       + 100489 x328 + 100099 x329 + 91993 x330 + 100740 x331 + 106681 x332
       + 102726 x333 + 109418 x334 + 100348 x335 + 93375 x336 + 90555 x337
       + 90220 x338 + 106173 x339 + 100969 x340 + 95358 x341 + 99941 x342
       + 104625 x343 + 92451 x344 + 108548 x345 + 101397 x346 + 102661 x347
       + 109697 x348 + 97746 x349 + 95912 x350 + 106851 x351 + 105847 x352
       + 92098 x353 + 100518 x354 + 100667 x355 + 92576 x356 + 109864 x357
       + 101868 x358 + 104600 x359 + 93891 x360 + 96544 x361 + 90597 x362
       + 90130 x363 + 99686 x364 + 91251 x365 + 99732 x366 + 93049 x367
       + 109941 x368 + 108570 x369 + 105291 x370 + 108720 x371 + 100330 x372
       + 108692 x373 + 90530 x374 + 108314 x375 + 95722 x376 + 105283 x377
       + 104317 x378 + 95199 x379 + 97975 x380 + 90144 x381 + 100292 x382
       + 90274 x383 + 108812 x384 + 97654 x385 + 104004 x386 + 105877 x387
       + 91306 x388 + 105781 x389 + 100298 x390 + 109811 x391 + 108705 x392
       + 93911 x393 + 106245 x394 + 94848 x395 + 95078 x396 + 106832 x397
       + 98485 x398 + 98427 x399 + 108723 x400 + 108907 x401 + 98119 x402
       + 102304 x403 + 96313 x404 + 92807 x405 + 101136 x406 + 102554 x407
       + 93430 x408 + 93134 x409 + 97850 x410 + 96579 x411 + 105451 x412
       + 106846 x413 + 90943 x414 + 105697 x415 + 91662 x416 + 99592 x417
       + 98434 x418 + 99380 x419 + 95030 x420 + 100251 x421 + 91711 x422
       + 105260 x423 + 108659 x424 + 103472 x425 + 109494 x426 + 103496 x427
       + 96752 x428 + 98527 x429 + 100539 x430 + 109056 x431 + 98566 x432
       + 106568 x433 + 103571 x434 + 97110 x435 + 100068 x436 + 98663 x437
       + 104382 x438 + 100488 x439 + 100955 x440 + 104209 x441 + 105493 x442
       + 101639 x443 + 93580 x444 + 101955 x445 + 109116 x446 + 97734 x447
       + 97887 x448 + 94976 x449 + 100518 x450 + 93996 x451 + 109204 x452
       + 96106 x453 + 92368 x454 + 103371 x455 + 99579 x456 + 96145 x457
       + 109686 x458 + 104205 x459 + 92665 x460 + 93594 x461 + 99765 x462
       + 91895 x463 + 107258 x464 + 91688 x465 + 101743 x466 + 95301 x467
       + 95161 x468 + 96211 x469 + 106458 x470 + 94206 x471 + 105375 x472
       + 95859 x473 + 98821 x474 + 90237 x475 + 108486 x476 + 95833 x477
       + 102126 x478 + 90383 x479 + 92626 x480 + 95565 x481 + 106514 x482
       + 102662 x483 + 107088 x484 + 106231 x485 + 94654 x486 + 104426 x487
       + 109073 x488 + 93350 x489 + 107984 x490 + 96737 x491 + 100902 x492
       + 98943 x493 + 106069 x494 + 96800 x495 + 90182 x496 + 90035 x497
       + 105609 x498 + 100457 x499 + 93957 x500 + 93211 x501 + 107147 x502
       + 90750 x503 + 103625 x504 + 103547 x505 + 96918 x506 + 98307 x507
       + 93158 x508 + 101973 x509 + 102948 x510 + 90980 x511 + 108545 x512
       + 93249 x513 + 99759 x514 + 93594 x515 + 109344 x516 + 90525 x517
       + 91801 x518 + 107786 x519 + 96861 x520 + 101837 x521 + 102155 x522
       + 96576 x523 + 97711 x524 + 98917 x525 + 90121 x526 + 98678 x527
       + 96370 x528 + 109347 x529 + 98966 x530 + 103501 x531 + 105819 x532
       + 109327 x533 + 93417 x534 + 109375 x535 + 91497 x536 + 106264 x537
       + 105401 x538 + 104743 x539 + 100523 x540 + 95488 x541 + 97656 x542
       + 102487 x543 + 105247 x544 + 90144 x545 + 95329 x546 + 97582 x547
       + 106382 x548 + 92889 x549 + 95300 x550 + 94549 x551 + 105482 x552
       + 103216 x553 + 106135 x554 + 107469 x555 + 94508 x556 + 96144 x557
       + 99752 x558 + 103803 x559 + 96101 x560 + 90133 x561 + 100262 x562
       + 107062 x563 + 104954 x564 + 105124 x565 + 99312 x566 + 92119 x567
       + 104528 x568 + 99028 x569 + 97280 x570 + 90107 x571 + 106864 x572
       + 103435 x573 + 97838 x574 + 105046 x575 + 96652 x576 + 102207 x577
       + 107146 x578 + 90152 x579 + 99858 x580 + 90316 x581 + 108362 x582
       + 98169 x583 + 101849 x584 + 94472 x585 + 97139 x586 + 107166 x587
       + 90356 x588 + 91965 x589 + 94460 x590 + 90878 x591 + 94523 x592
       + 109656 x593 + 99403 x594 + 90983 x595 + 92893 x596 + 101115 x597
       + 106334 x598 + 97639 x599 + 204665 x600 + 407967 x601 + 388705 x602
       + 387440 x603 + 392431 x604 + 361461 x605 + 376210 x606 + 367962 x607
       + 439357 x608 + 418554 x609 + 385973 x610 + 372243 x611 + 409309 x612
       + 368069 x613 + 399169 x614 + 393455 x615 + 425911 x616 + 414737 x617
       + 425214 x618 + 435484 x619 + 381751 x620 + 433217 x621 + 413148 x622
       + 416028 x623 + 387304 x624 + 381275 x625 + 419838 x626 + 396471 x627
       + 380699 x628 + 369104 x629 + 390870 x630 + 362475 x631 + 365797 x632
       + 427528 x633 + 410075 x634 + 438659 x635 + 409863 x636 + 371008 x637
       + 361211 x638 + 367719 x639 + 383479 x640 + 432083 x641 + 380400 x642
       + 438781 x643 + 424127 x644 + 432072 x645 + 420508 x646 + 411718 x647
       + 411238 x648 + 428570 x649 + 378714 x650 + 433648 x651 + 434317 x652
       + 403493 x653 + 436107 x654 + 400756 x655 + 397065 x656 + 386080 x657
       + 363232 x658 + 403041 x659 + 346880 x660
Subject To
 c1:   x5 - x17 + x20 - x38 - x40 - x44 - x56  = 0
 c2:   x65 - x77 + x80 - x98 - x100 - x104 - x116  = 0
 c3:   x125 - x137 + x140 - x158 - x160 - x164 - x176  = 0
 c4:   x185 - x197 + x200 - x218 - x220 - x224 - x236  = 0
 c5:   x245 - x257 + x260 - x278 - x280 - x284 - x296  = 0
 c6:   x305 - x317 + x320 - x338 - x340 - x344 - x356  = -1
 c7:   x365 - x377 + x380 - x398 - x400 - x404 - x416  = 0
 c8:   x425 - x437 + x440 - x458 - x460 - x464 - x476  = -1
 c9:   x485 - x497 + x500 - x518 - x520 - x524 - x536  = 0
 c10:  x545 - x557 + x560 - x578 - x580 - x584 - x596  = 0
 c11:  - x6 - x18 - x36 - x48 + x53  = -1
 c12:  - x66 - x78 - x96 - x108 + x113  = 0
 c13:  - x126 - x138 - x156 - x168 + x173  = 0
 c14:  - x186 - x198 - x216 - x228 + x233  = 1
 c15:  - x246 - x258 - x276 - x288 + x293  = 0
 c16:  - x306 - x318 - x336 - x348 + x353  = 0
 c17:  - x366 - x378 - x396 - x408 + x413  = 0
 c18:  - x426 - x438 - x456 - x468 + x473  = 0
 c19:  - x486 - x498 - x516 - x528 + x533  = 0
 c20:  - x546 - x558 - x576 - x588 + x593  = 0
 c21:  x1 + x3 + x14 + x16 - x24 - x25 + x29 + x38 - x49 - x52 - x55 - x57
       - x60  = 0
 c22:  x61 + x63 + x74 + x76 - x84 - x85 + x89 + x98 - x109 - x112 - x115
       - x117 - x120  = 0
 c23:  x121 + x123 + x134 + x136 - x144 - x145 + x149 + x158 - x169 - x172
       - x175 - x177 - x180  = 0
 c24:  x181 + x183 + x194 + x196 - x204 - x205 + x209 + x218 - x229 - x232
       - x235 - x237 - x240  = 0
 c25:  x241 + x243 + x254 + x256 - x264 - x265 + x269 + x278 - x289 - x292
       - x295 - x297 - x300  = 0
 c26:  x301 + x303 + x314 + x316 - x324 - x325 + x329 + x338 - x349 - x352
       - x355 - x357 - x360  = 0
 c27:  x361 + x363 + x374 + x376 - x384 - x385 + x389 + x398 - x409 - x412
       - x415 - x417 - x420  = -1
 c28:  x421 + x423 + x434 + x436 - x444 - x445 + x449 + x458 - x469 - x472
       - x475 - x477 - x480  = 0
 c29:  x481 + x483 + x494 + x496 - x504 - x505 + x509 + x518 - x529 - x532
       - x535 - x537 - x540  = 0
 c30:  x541 + x543 + x554 + x556 - x564 - x565 + x569 + x578 - x589 - x592
       - x595 - x597 - x600  = 0
 c31:  x7 - x9 - x20 - x22 - x31 - x35 - x41 + x46  = 0
 c32:  x67 - x69 - x80 - x82 - x91 - x95 - x101 + x106  = 0
 c33:  x127 - x129 - x140 - x142 - x151 - x155 - x161 + x166  = 0
 c34:  x187 - x189 - x200 - x202 - x211 - x215 - x221 + x226  = 0
 c35:  x247 - x249 - x260 - x262 - x271 - x275 - x281 + x286  = 0
 c36:  x307 - x309 - x320 - x322 - x331 - x335 - x341 + x346  = 0
 c37:  x367 - x369 - x380 - x382 - x391 - x395 - x401 + x406  = 0
 c38:  x427 - x429 - x440 - x442 - x451 - x455 - x461 + x466  = 1
 c39:  x487 - x489 - x500 - x502 - x511 - x515 - x521 + x526  = 0
 c40:  x547 - x549 - x560 - x562 - x571 - x575 - x581 + x586  = -1
 c41:  - x4 - x5 + x15 + x19 - x26 - x28 - x30 + x35 - x37 - x47 - x53  = 0
 c42:  - x64 - x65 + x75 + x79 - x86 - x88 - x90 + x95 - x97 - x107 - x113  = 0
 c43:  - x124 - x125 + x135 + x139 - x146 - x148 - x150 + x155 - x157 - x167
       - x173  = 0
 c44:  - x184 - x185 + x195 + x199 - x206 - x208 - x210 + x215 - x217 - x227
       - x233  = -1
 c45:  - x244 - x245 + x255 + x259 - x266 - x268 - x270 + x275 - x277 - x287
       - x293  = 0
 c46:  - x304 - x305 + x315 + x319 - x326 - x328 - x330 + x335 - x337 - x347
       - x353  = 0
 c47:  - x364 - x365 + x375 + x379 - x386 - x388 - x390 + x395 - x397 - x407
       - x413  = 0
 c48:  - x424 - x425 + x435 + x439 - x446 - x448 - x450 + x455 - x457 - x467
       - x473  = 0
 c49:  - x484 - x485 + x495 + x499 - x506 - x508 - x510 + x515 - x517 - x527
       - x533  = 1
 c50:  - x544 - x545 + x555 + x559 - x566 - x568 - x570 + x575 - x577 - x587
       - x593  = 0
 c51:  - x33 + x49 + x58  = 0
 c52:  - x93 + x109 + x118  = 0
 c53:  - x153 + x169 + x178  = 0
 c54:  - x213 + x229 + x238  = 0
 c55:  - x273 + x289 + x298  = 0
 c56:  - x333 + x349 + x358  = 0
 c57:  - x393 + x409 + x418  = 0
 c58:  - x453 + x469 + x478  = 0
 c59:  - x513 + x529 + x538  = 0
 c60:  - x573 + x589 + x598  = 0
 c61:  - x14 - x15 + x23 + x31 + x33 - x50 + x54 + x57  = 0
 c62:  - x74 - x75 + x83 + x91 + x93 - x110 + x114 + x117  = 0
 c63:  - x134 - x135 + x143 + x151 + x153 - x170 + x174 + x177  = 1
 c64:  - x194 - x195 + x203 + x211 + x213 - x230 + x234 + x237  = 0
 c65:  - x254 - x255 + x263 + x271 + x273 - x290 + x294 + x297  = 0
 c66:  - x314 - x315 + x323 + x331 + x333 - x350 + x354 + x357  = 0
 c67:  - x374 - x375 + x383 + x391 + x393 - x410 + x414 + x417  = 0
 c68:  - x434 - x435 + x443 + x451 + x453 - x470 + x474 + x477  = 0
 c69:  - x494 - x495 + x503 + x511 + x513 - x530 + x534 + x537  = 0
 c70:  - x554 - x555 + x563 + x571 + x573 - x590 + x594 + x597  = 0
 c71:  x8 - x12 - x16 + x25 + x26 + x34 - x39 + x40 + x43 + x51  = 0
 c72:  x68 - x72 - x76 + x85 + x86 + x94 - x99 + x100 + x103 + x111  = 0
 c73:  x128 - x132 - x136 + x145 + x146 + x154 - x159 + x160 + x163 + x171  = 0
 c74:  x188 - x192 - x196 + x205 + x206 + x214 - x219 + x220 + x223 + x231  = 0
 c75:  x248 - x252 - x256 + x265 + x266 + x274 - x279 + x280 + x283 + x291  = 0
 c76:  x308 - x312 - x316 + x325 + x326 + x334 - x339 + x340 + x343 + x351  = 0
 c77:  x368 - x372 - x376 + x385 + x386 + x394 - x399 + x400 + x403 + x411  = 0
 c78:  x428 - x432 - x436 + x445 + x446 + x454 - x459 + x460 + x463 + x471  = 0
 c79:  x488 - x492 - x496 + x505 + x506 + x514 - x519 + x520 + x523 + x531
        = -1
 c80:  x548 - x552 - x556 + x565 + x566 + x574 - x579 + x580 + x583 + x591  = 0
 c81:  - x2 + x4 - x8 + x9 - x11 + x17 + x21 + x27 - x32 + x45 - x46 + x48
       + x50 - x54 + x55  = 0
 c82:  - x62 + x64 - x68 + x69 - x71 + x77 + x81 + x87 - x92 + x105 - x106
       + x108 + x110 - x114 + x115  = 0
 c83:  - x122 + x124 - x128 + x129 - x131 + x137 + x141 + x147 - x152 + x165
       - x166 + x168 + x170 - x174 + x175  = 0
 c84:  - x182 + x184 - x188 + x189 - x191 + x197 + x201 + x207 - x212 + x225
       - x226 + x228 + x230 - x234 + x235  = 0
 c85:  - x242 + x244 - x248 + x249 - x251 + x257 + x261 + x267 - x272 + x285
       - x286 + x288 + x290 - x294 + x295  = 0
 c86:  - x302 + x304 - x308 + x309 - x311 + x317 + x321 + x327 - x332 + x345
       - x346 + x348 + x350 - x354 + x355  = 1
 c87:  - x362 + x364 - x368 + x369 - x371 + x377 + x381 + x387 - x392 + x405
       - x406 + x408 + x410 - x414 + x415  = 1
 c88:  - x422 + x424 - x428 + x429 - x431 + x437 + x441 + x447 - x452 + x465
       - x466 + x468 + x470 - x474 + x475  = 0
 c89:  - x482 + x484 - x488 + x489 - x491 + x497 + x501 + x507 - x512 + x525
       - x526 + x528 + x530 - x534 + x535  = 0
 c90:  - x542 + x544 - x548 + x549 - x551 + x557 + x561 + x567 - x572 + x585
       - x586 + x588 + x590 - x594 + x595  = 0
 c91:  - x7 - x10 + x28 - x29 + x32 - x34 - x59 + x60  = 1
 c92:  - x67 - x70 + x88 - x89 + x92 - x94 - x119 + x120  = 1
 c93:  - x127 - x130 + x148 - x149 + x152 - x154 - x179 + x180  = 0
 c94:  - x187 - x190 + x208 - x209 + x212 - x214 - x239 + x240  = 0
 c95:  - x247 - x250 + x268 - x269 + x272 - x274 - x299 + x300  = 1
 c96:  - x307 - x310 + x328 - x329 + x332 - x334 - x359 + x360  = 0
 c97:  - x367 - x370 + x388 - x389 + x392 - x394 - x419 + x420  = 0
 c98:  - x427 - x430 + x448 - x449 + x452 - x454 - x479 + x480  = 0
 c99:  - x487 - x490 + x508 - x509 + x512 - x514 - x539 + x540  = 0
 c100: - x547 - x550 + x568 - x569 + x572 - x574 - x599 + x600  = 0
 c101: x11 - x21 + x22 + x24 + x36 - x42 + x44 + x59  = 0
 c102: x71 - x81 + x82 + x84 + x96 - x102 + x104 + x119  = 0
 c103: x131 - x141 + x142 + x144 + x156 - x162 + x164 + x179  = 0
 c104: x191 - x201 + x202 + x204 + x216 - x222 + x224 + x239  = 0
 c105: x251 - x261 + x262 + x264 + x276 - x282 + x284 + x299  = 0
 c106: x311 - x321 + x322 + x324 + x336 - x342 + x344 + x359  = 0
 c107: x371 - x381 + x382 + x384 + x396 - x402 + x404 + x419  = 0
 c108: x431 - x441 + x442 + x444 + x456 - x462 + x464 + x479  = 0
 c109: x491 - x501 + x502 + x504 + x516 - x522 + x524 + x539  = 0
 c110: x551 - x561 + x562 + x564 + x576 - x582 + x584 + x599  = 0
 c111: - x1 + x2 + x12 - x13 - x23 - x27 + x30 + x41  = 0
 c112: - x61 + x62 + x72 - x73 - x83 - x87 + x90 + x101  = 0
 c113: - x121 + x122 + x132 - x133 - x143 - x147 + x150 + x161  = 0
 c114: - x181 + x182 + x192 - x193 - x203 - x207 + x210 + x221  = 0
 c115: - x241 + x242 + x252 - x253 - x263 - x267 + x270 + x281  = 0
 c116: - x301 + x302 + x312 - x313 - x323 - x327 + x330 + x341  = 0
 c117: - x361 + x362 + x372 - x373 - x383 - x387 + x390 + x401  = 0
 c118: - x421 + x422 + x432 - x433 - x443 - x447 + x450 + x461  = 0
 c119: - x481 + x482 + x492 - x493 - x503 - x507 + x510 + x521  = 0
 c120: - x541 + x542 + x552 - x553 - x563 - x567 + x570 + x581  = 0
 c121: x6 + x13 + x37 - x43 - x45 + x56  = 0
 c122: x66 + x73 + x97 - x103 - x105 + x116  = 0
 c123: x126 + x133 + x157 - x163 - x165 + x176  = -1
 c124: x186 + x193 + x217 - x223 - x225 + x236  = 0
 c125: x246 + x253 + x277 - x283 - x285 + x296  = 0
 c126: x306 + x313 + x337 - x343 - x345 + x356  = 0
 c127: x366 + x373 + x397 - x403 - x405 + x416  = 0
 c128: x426 + x433 + x457 - x463 - x465 + x476  = 0
 c129: x486 + x493 + x517 - x523 - x525 + x536  = 0
 c130: x546 + x553 + x577 - x583 - x585 + x596  = 1
 c131: x10 - x19 + x39 + x42 - x51 - x58  = 0
 c132: x70 - x79 + x99 + x102 - x111 - x118  = -1
 c133: x130 - x139 + x159 + x162 - x171 - x178  = 0
 c134: x190 - x199 + x219 + x222 - x231 - x238  = 0
 c135: x250 - x259 + x279 + x282 - x291 - x298  = -1
 c136: x310 - x319 + x339 + x342 - x351 - x358  = 0
 c137: x370 - x379 + x399 + x402 - x411 - x418  = 0
 c138: x430 - x439 + x459 + x462 - x471 - x478  = 0
 c139: x490 - x499 + x519 + x522 - x531 - x538  = 0
 c140: x550 - x559 + x579 + x582 - x591 - x598  = 0
 c141: - x3 + x18 + x47 + x52  = 0
 c142: - x63 + x78 + x107 + x112  = 0
 c143: - x123 + x138 + x167 + x172  = 0
 c144: - x183 + x198 + x227 + x232  = 0
 c145: - x243 + x258 + x287 + x292  = 0
 c146: - x303 + x318 + x347 + x352  = 0
 c147: - x363 + x378 + x407 + x412  = 0
 c148: - x423 + x438 + x467 + x472  = 0
 c149: - x483 + x498 + x527 + x532  = 0
 c150: - x543 + x558 + x587 + x592  = 0
 c151: 4 x1 + 4 x61 + 4 x121 + 4 x181 + 4 x241 + 4 x301 + 4 x361 + 4 x421
       + 4 x481 + 4 x541 - 5 x601 <= 0
 c152: 4 x2 + 4 x62 + 4 x122 + 4 x182 + 4 x242 + 4 x302 + 4 x362 + 4 x422
       + 4 x482 + 4 x542 - 5 x602 <= 0
 c153: 4 x3 + 4 x63 + 4 x123 + 4 x183 + 4 x243 + 4 x303 + 4 x363 + 4 x423
       + 4 x483 + 4 x543 - 5 x603 <= 0
 c154: 4 x4 + 4 x64 + 4 x124 + 4 x184 + 4 x244 + 4 x304 + 4 x364 + 4 x424
       + 4 x484 + 4 x544 - 5 x604 <= 0
 c155: 4 x5 + 4 x65 + 4 x125 + 4 x185 + 4 x245 + 4 x305 + 4 x365 + 4 x425
       + 4 x485 + 4 x545 - 5 x605 <= 0
 c156: 4 x6 + 4 x66 + 4 x126 + 4 x186 + 4 x246 + 4 x306 + 4 x366 + 4 x426
       + 4 x486 + 4 x546 - 5 x606 <= 0
 c157: 4 x7 + 4 x67 + 4 x127 + 4 x187 + 4 x247 + 4 x307 + 4 x367 + 4 x427
       + 4 x487 + 4 x547 - 5 x607 <= 0
 c158: 4 x8 + 4 x68 + 4 x128 + 4 x188 + 4 x248 + 4 x308 + 4 x368 + 4 x428
       + 4 x488 + 4 x548 - 5 x608 <= 0
 c159: 4 x9 + 4 x69 + 4 x129 + 4 x189 + 4 x249 + 4 x309 + 4 x369 + 4 x429
       + 4 x489 + 4 x549 - 5 x609 <= 0
 c160: 4 x10 + 4 x70 + 4 x130 + 4 x190 + 4 x250 + 4 x310 + 4 x370 + 4 x430
       + 4 x490 + 4 x550 - 5 x610 <= 0
 c161: 4 x11 + 4 x71 + 4 x131 + 4 x191 + 4 x251 + 4 x311 + 4 x371 + 4 x431
       + 4 x491 + 4 x551 - 5 x611 <= 0
 c162: 4 x12 + 4 x72 + 4 x132 + 4 x192 + 4 x252 + 4 x312 + 4 x372 + 4 x432
       + 4 x492 + 4 x552 - 5 x612 <= 0
 c163: 4 x13 + 4 x73 + 4 x133 + 4 x193 + 4 x253 + 4 x313 + 4 x373 + 4 x433
       + 4 x493 + 4 x553 - 5 x613 <= 0
 c164: 4 x14 + 4 x74 + 4 x134 + 4 x194 + 4 x254 + 4 x314 + 4 x374 + 4 x434
       + 4 x494 + 4 x554 - 5 x614 <= 0
 c165: 4 x15 + 4 x75 + 4 x135 + 4 x195 + 4 x255 + 4 x315 + 4 x375 + 4 x435
       + 4 x495 + 4 x555 - 5 x615 <= 0
 c166: 4 x16 + 4 x76 + 4 x136 + 4 x196 + 4 x256 + 4 x316 + 4 x376 + 4 x436
       + 4 x496 + 4 x556 - 5 x616 <= 0
 c167: 4 x17 + 4 x77 + 4 x137 + 4 x197 + 4 x257 + 4 x317 + 4 x377 + 4 x437
       + 4 x497 + 4 x557 - 5 x617 <= 0
 c168: 4 x18 + 4 x78 + 4 x138 + 4 x198 + 4 x258 + 4 x318 + 4 x378 + 4 x438
       + 4 x498 + 4 x558 - 5 x618 <= 0
 c169: 4 x19 + 4 x79 + 4 x139 + 4 x199 + 4 x259 + 4 x319 + 4 x379 + 4 x439
       + 4 x499 + 4 x559 - 5 x619 <= 0
 c170: 4 x20 + 4 x80 + 4 x140 + 4 x200 + 4 x260 + 4 x320 + 4 x380 + 4 x440
       + 4 x500 + 4 x560 - 5 x620 <= 0
 c171: 4 x21 + 4 x81 + 4 x141 + 4 x201 + 4 x261 + 4 x321 + 4 x381 + 4 x441
       + 4 x501 + 4 x561 - 5 x621 <= 0
 c172: 4 x22 + 4 x82 + 4 x142 + 4 x202 + 4 x262 + 4 x322 + 4 x382 + 4 x442
       + 4 x502 + 4 x562 - 5 x622 <= 0
 c173: 4 x23 + 4 x83 + 4 x143 + 4 x203 + 4 x263 + 4 x323 + 4 x383 + 4 x443
       + 4 x503 + 4 x563 - 5 x623 <= 0
 c174: 4 x24 + 4 x84 + 4 x144 + 4 x204 + 4 x264 + 4 x324 + 4 x384 + 4 x444
       + 4 x504 + 4 x564 - 5 x624 <= 0
 c175: 4 x25 + 4 x85 + 4 x145 + 4 x205 + 4 x265 + 4 x325 + 4 x385 + 4 x445
       + 4 x505 + 4 x565 - 5 x625 <= 0
 c176: 4 x26 + 4 x86 + 4 x146 + 4 x206 + 4 x266 + 4 x326 + 4 x386 + 4 x446
       + 4 x506 + 4 x566 - 5 x626 <= 0
 c177: 4 x27 + 4 x87 + 4 x147 + 4 x207 + 4 x267 + 4 x327 + 4 x387 + 4 x447
       + 4 x507 + 4 x567 - 5 x627 <= 0
 c178: 4 x28 + 4 x88 + 4 x148 + 4 x208 + 4 x268 + 4 x328 + 4 x388 + 4 x448
       + 4 x508 + 4 x568 - 5 x628 <= 0
 c179: 4 x29 + 4 x89 + 4 x149 + 4 x209 + 4 x269 + 4 x329 + 4 x389 + 4 x449
       + 4 x509 + 4 x569 - 5 x629 <= 0
 c180: 4 x30 + 4 x90 + 4 x150 + 4 x210 + 4 x270 + 4 x330 + 4 x390 + 4 x450
       + 4 x510 + 4 x570 - 5 x630 <= 0
 c181: 4 x31 + 4 x91 + 4 x151 + 4 x211 + 4 x271 + 4 x331 + 4 x391 + 4 x451
       + 4 x511 + 4 x571 - 5 x631 <= 0
 c182: 4 x32 + 4 x92 + 4 x152 + 4 x212 + 4 x272 + 4 x332 + 4 x392 + 4 x452
       + 4 x512 + 4 x572 - 5 x632 <= 0
 c183: 4 x33 + 4 x93 + 4 x153 + 4 x213 + 4 x273 + 4 x333 + 4 x393 + 4 x453
       + 4 x513 + 4 x573 - 5 x633 <= 0
 c184: 4 x34 + 4 x94 + 4 x154 + 4 x214 + 4 x274 + 4 x334 + 4 x394 + 4 x454
       + 4 x514 + 4 x574 - 5 x634 <= 0
 c185: 4 x35 + 4 x95 + 4 x155 + 4 x215 + 4 x275 + 4 x335 + 4 x395 + 4 x455
       + 4 x515 + 4 x575 - 5 x635 <= 0
 c186: 4 x36 + 4 x96 + 4 x156 + 4 x216 + 4 x276 + 4 x336 + 4 x396 + 4 x456
       + 4 x516 + 4 x576 - 5 x636 <= 0
 c187: 4 x37 + 4 x97 + 4 x157 + 4 x217 + 4 x277 + 4 x337 + 4 x397 + 4 x457
       + 4 x517 + 4 x577 - 5 x637 <= 0
 c188: 4 x38 + 4 x98 + 4 x158 + 4 x218 + 4 x278 + 4 x338 + 4 x398 + 4 x458
       + 4 x518 + 4 x578 - 5 x638 <= 0
 c189: 4 x39 + 4 x99 + 4 x159 + 4 x219 + 4 x279 + 4 x339 + 4 x399 + 4 x459
       + 4 x519 + 4 x579 - 5 x639 <= 0
 c190: 4 x40 + 4 x100 + 4 x160 + 4 x220 + 4 x280 + 4 x340 + 4 x400 + 4 x460
       + 4 x520 + 4 x580 - 5 x640 <= 0
 c191: 4 x41 + 4 x101 + 4 x161 + 4 x221 + 4 x281 + 4 x341 + 4 x401 + 4 x461
       + 4 x521 + 4 x581 - 5 x641 <= 0
 c192: 4 x42 + 4 x102 + 4 x162 + 4 x222 + 4 x282 + 4 x342 + 4 x402 + 4 x462
       + 4 x522 + 4 x582 - 5 x642 <= 0
 c193: 4 x43 + 4 x103 + 4 x163 + 4 x223 + 4 x283 + 4 x343 + 4 x403 + 4 x463
       + 4 x523 + 4 x583 - 5 x643 <= 0
 c194: 4 x44 + 4 x104 + 4 x164 + 4 x224 + 4 x284 + 4 x344 + 4 x404 + 4 x464
       + 4 x524 + 4 x584 - 5 x644 <= 0
 c195: 4 x45 + 4 x105 + 4 x165 + 4 x225 + 4 x285 + 4 x345 + 4 x405 + 4 x465
       + 4 x525 + 4 x585 - 5 x645 <= 0
 c196: 4 x46 + 4 x106 + 4 x166 + 4 x226 + 4 x286 + 4 x346 + 4 x406 + 4 x466
       + 4 x526 + 4 x586 - 5 x646 <= 0
 c197: 4 x47 + 4 x107 + 4 x167 + 4 x227 + 4 x287 + 4 x347 + 4 x407 + 4 x467
       + 4 x527 + 4 x587 - 5 x647 <= 0
 c198: 4 x48 + 4 x108 + 4 x168 + 4 x228 + 4 x288 + 4 x348 + 4 x408 + 4 x468
       + 4 x528 + 4 x588 - 5 x648 <= 0
 c199: 4 x49 + 4 x109 + 4 x169 + 4 x229 + 4 x289 + 4 x349 + 4 x409 + 4 x469
       + 4 x529 + 4 x589 - 5 x649 <= 0
 c200: 4 x50 + 4 x110 + 4 x170 + 4 x230 + 4 x290 + 4 x350 + 4 x410 + 4 x470
       + 4 x530 + 4 x590 - 5 x650 <= 0
 c201: 4 x51 + 4 x111 + 4 x171 + 4 x231 + 4 x291 + 4 x351 + 4 x411 + 4 x471
       + 4 x531 + 4 x591 - 5 x651 <= 0
 c202: 4 x52 + 4 x112 + 4 x172 + 4 x232 + 4 x292 + 4 x352 + 4 x412 + 4 x472
       + 4 x532 + 4 x592 - 5 x652 <= 0
 c203: 4 x53 + 4 x113 + 4 x173 + 4 x233 + 4 x293 + 4 x353 + 4 x413 + 4 x473
       + 4 x533 + 4 x593 - 5 x653 <= 0
 c204: 4 x54 + 4 x114 + 4 x174 + 4 x234 + 4 x294 + 4 x354 + 4 x414 + 4 x474
       + 4 x534 + 4 x594 - 5 x654 <= 0
 c205: 4 x55 + 4 x115 + 4 x175 + 4 x235 + 4 x295 + 4 x355 + 4 x415 + 4 x475
       + 4 x535 + 4 x595 - 5 x655 <= 0
 c206: 4 x56 + 4 x116 + 4 x176 + 4 x236 + 4 x296 + 4 x356 + 4 x416 + 4 x476
       + 4 x536 + 4 x596 - 5 x656 <= 0
 c207: 4 x57 + 4 x117 + 4 x177 + 4 x237 + 4 x297 + 4 x357 + 4 x417 + 4 x477
       + 4 x537 + 4 x597 - 5 x657 <= 0
 c208: 4 x58 + 4 x118 + 4 x178 + 4 x238 + 4 x298 + 4 x358 + 4 x418 + 4 x478
       + 4 x538 + 4 x598 - 5 x658 <= 0
 c209: 4 x59 + 4 x119 + 4 x179 + 4 x239 + 4 x299 + 4 x359 + 4 x419 + 4 x479
       + 4 x539 + 4 x599 - 5 x659 <= 0
 c210: 4 x60 + 4 x120 + 4 x180 + 4 x240 + 4 x300 + 4 x360 + 4 x420 + 4 x480
       + 4 x540 + 4 x600 - 5 x660 <= 0
Bounds
 0 <= x1 <= 1
 0 <= x2 <= 1
 0 <= x3 <= 1
 0 <= x4 <= 1
 0 <= x5 <= 1
 0 <= x6 <= 1
 0 <= x7 <= 1
 0 <= x8 <= 1
 0 <= x9 <= 1
 0 <= x10 <= 1
 0 <= x11 <= 1
 0 <= x12 <= 1
 0 <= x13 <= 1
 0 <= x14 <= 1
 0 <= x15 <= 1
 0 <= x16 <= 1
 0 <= x17 <= 1
 0 <= x18 <= 1
 0 <= x19 <= 1
 0 <= x20 <= 1
 0 <= x21 <= 1
 0 <= x22 <= 1
 0 <= x23 <= 1
 0 <= x24 <= 1
 0 <= x25 <= 1
 0 <= x26 <= 1
 0 <= x27 <= 1
 0 <= x28 <= 1
 0 <= x29 <= 1
 0 <= x30 <= 1
 0 <= x31 <= 1
 0 <= x32 <= 1
 0 <= x33 <= 1
 0 <= x34 <= 1
 0 <= x35 <= 1
 0 <= x36 <= 1
 0 <= x37 <= 1
 0 <= x38 <= 1
 0 <= x39 <= 1
 0 <= x40 <= 1
 0 <= x41 <= 1
 0 <= x42 <= 1
 0 <= x43 <= 1
 0 <= x44 <= 1
 0 <= x45 <= 1
 0 <= x46 <= 1
 0 <= x47 <= 1
 0 <= x48 <= 1
 0 <= x49 <= 1
 0 <= x50 <= 1
 0 <= x51 <= 1
 0 <= x52 <= 1
 0 <= x53 <= 1
 0 <= x54 <= 1
 0 <= x55 <= 1
 0 <= x56 <= 1
 0 <= x57 <= 1
 0 <= x58 <= 1
 0 <= x59 <= 1
 0 <= x60 <= 1
 0 <= x61 <= 1
 0 <= x62 <= 1
 0 <= x63 <= 1
 0 <= x64 <= 1
 0 <= x65 <= 1
 0 <= x66 <= 1
 0 <= x67 <= 1
 0 <= x68 <= 1
 0 <= x69 <= 1
 0 <= x70 <= 1
 0 <= x71 <= 1
 0 <= x72 <= 1
 0 <= x73 <= 1
 0 <= x74 <= 1
 0 <= x75 <= 1
 0 <= x76 <= 1
 0 <= x77 <= 1
 0 <= x78 <= 1
 0 <= x79 <= 1
 0 <= x80 <= 1
 0 <= x81 <= 1
 0 <= x82 <= 1
 0 <= x83 <= 1
 0 <= x84 <= 1
 0 <= x85 <= 1
 0 <= x86 <= 1
 0 <= x87 <= 1
 0 <= x88 <= 1
 0 <= x89 <= 1
 0 <= x90 <= 1
 0 <= x91 <= 1
 0 <= x92 <= 1
 0 <= x93 <= 1
 0 <= x94 <= 1
 0 <= x95 <= 1
 0 <= x96 <= 1
 0 <= x97 <= 1
 0 <= x98 <= 1
 0 <= x99 <= 1
 0 <= x100 <= 1
 0 <= x101 <= 1
 0 <= x102 <= 1
 0 <= x103 <= 1
 0 <= x104 <= 1
 0 <= x105 <= 1
 0 <= x106 <= 1
 0 <= x107 <= 1
 0 <= x108 <= 1
 0 <= x109 <= 1
 0 <= x110 <= 1
 0 <= x111 <= 1
 0 <= x112 <= 1
 0 <= x113 <= 1
 0 <= x114 <= 1
 0 <= x115 <= 1
 0 <= x116 <= 1
 0 <= x117 <= 1
 0 <= x118 <= 1
 0 <= x119 <= 1
 0 <= x120 <= 1
 0 <= x121 <= 1
 0 <= x122 <= 1
 0 <= x123 <= 1
 0 <= x124 <= 1
 0 <= x125 <= 1
 0 <= x126 <= 1
 0 <= x127 <= 1
 0 <= x128 <= 1
 0 <= x129 <= 1
 0 <= x130 <= 1
 0 <= x131 <= 1
 0 <= x132 <= 1
 0 <= x133 <= 1
 0 <= x134 <= 1
 0 <= x135 <= 1
 0 <= x136 <= 1
 0 <= x137 <= 1
 0 <= x138 <= 1
 0 <= x139 <= 1
 0 <= x140 <= 1
 0 <= x141 <= 1
 0 <= x142 <= 1
 0 <= x143 <= 1
 0 <= x144 <= 1
 0 <= x145 <= 1
 0 <= x146 <= 1
 0 <= x147 <= 1
 0 <= x148 <= 1
 0 <= x149 <= 1
 0 <= x150 <= 1
 0 <= x151 <= 1
 0 <= x152 <= 1
 0 <= x153 <= 1
 0 <= x154 <= 1
 0 <= x155 <= 1
 0 <= x156 <= 1
 0 <= x157 <= 1
 0 <= x158 <= 1
 0 <= x159 <= 1
 0 <= x160 <= 1
 0 <= x161 <= 1
 0 <= x162 <= 1
 0 <= x163 <= 1
 0 <= x164 <= 1
 0 <= x165 <= 1
 0 <= x166 <= 1
 0 <= x167 <= 1
 0 <= x168 <= 1
 0 <= x169 <= 1
 0 <= x170 <= 1
 0 <= x171 <= 1
 0 <= x172 <= 1
 0 <= x173 <= 1
 0 <= x174 <= 1
 0 <= x175 <= 1
 0 <= x176 <= 1
 0 <= x177 <= 1
 0 <= x178 <= 1
 0 <= x179 <= 1
 0 <= x180 <= 1
 0 <= x181 <= 1
 0 <= x182 <= 1
 0 <= x183 <= 1
 0 <= x184 <= 1
 0 <= x185 <= 1
 0 <= x186 <= 1
 0 <= x187 <= 1
 0 <= x188 <= 1
 0 <= x189 <= 1
 0 <= x190 <= 1
 0 <= x191 <= 1
 0 <= x192 <= 1
 0 <= x193 <= 1
 0 <= x194 <= 1
 0 <= x195 <= 1
 0 <= x196 <= 1
 0 <= x197 <= 1
 0 <= x198 <= 1
 0 <= x199 <= 1
 0 <= x200 <= 1
 0 <= x201 <= 1
 0 <= x202 <= 1
 0 <= x203 <= 1
 0 <= x204 <= 1
 0 <= x205 <= 1
 0 <= x206 <= 1
 0 <= x207 <= 1
 0 <= x208 <= 1
 0 <= x209 <= 1
 0 <= x210 <= 1
 0 <= x211 <= 1
 0 <= x212 <= 1
 0 <= x213 <= 1
 0 <= x214 <= 1
 0 <= x215 <= 1
 0 <= x216 <= 1
 0 <= x217 <= 1
 0 <= x218 <= 1
 0 <= x219 <= 1
 0 <= x220 <= 1
 0 <= x221 <= 1
 0 <= x222 <= 1
 0 <= x223 <= 1
 0 <= x224 <= 1
 0 <= x225 <= 1
 0 <= x226 <= 1
 0 <= x227 <= 1
 0 <= x228 <= 1
 0 <= x229 <= 1
 0 <= x230 <= 1
 0 <= x231 <= 1
 0 <= x232 <= 1
 0 <= x233 <= 1
 0 <= x234 <= 1
 0 <= x235 <= 1
 0 <= x236 <= 1
 0 <= x237 <= 1
 0 <= x238 <= 1
 0 <= x239 <= 1
 0 <= x240 <= 1
 0 <= x241 <= 1
 0 <= x242 <= 1
 0 <= x243 <= 1
 0 <= x244 <= 1
 0 <= x245 <= 1
 0 <= x246 <= 1
 0 <= x247 <= 1
 0 <= x248 <= 1
 0 <= x249 <= 1
 0 <= x250 <= 1
 0 <= x251 <= 1
 0 <= x252 <= 1
 0 <= x253 <= 1
 0 <= x254 <= 1
 0 <= x255 <= 1
 0 <= x256 <= 1
 0 <= x257 <= 1
 0 <= x258 <= 1
 0 <= x259 <= 1
 0 <= x260 <= 1
 0 <= x261 <= 1
 0 <= x262 <= 1
 0 <= x263 <= 1
 0 <= x264 <= 1
 0 <= x265 <= 1
 0 <= x266 <= 1
 0 <= x267 <= 1
 0 <= x268 <= 1
 0 <= x269 <= 1
 0 <= x270 <= 1
 0 <= x271 <= 1
 0 <= x272 <= 1
 0 <= x273 <= 1
 0 <= x274 <= 1
 0 <= x275 <= 1
 0 <= x276 <= 1
 0 <= x277 <= 1
 0 <= x278 <= 1
 0 <= x279 <= 1
 0 <= x280 <= 1
 0 <= x281 <= 1
 0 <= x282 <= 1
 0 <= x283 <= 1
 0 <= x284 <= 1
 0 <= x285 <= 1
 0 <= x286 <= 1
 0 <= x287 <= 1
 0 <= x288 <= 1
 0 <= x289 <= 1
 0 <= x290 <= 1
 0 <= x291 <= 1
 0 <= x292 <= 1
 0 <= x293 <= 1
 0 <= x294 <= 1
 0 <= x295 <= 1
 0 <= x296 <= 1
 0 <= x297 <= 1
 0 <= x298 <= 1
 0 <= x299 <= 1
 0 <= x300 <= 1
 0 <= x301 <= 1
 0 <= x302 <= 1
 0 <= x303 <= 1
 0 <= x304 <= 1
 0 <= x305 <= 1
 0 <= x306 <= 1
 0 <= x307 <= 1
 0 <= x308 <= 1
 0 <= x309 <= 1
 0 <= x310 <= 1
 0 <= x311 <= 1
 0 <= x312 <= 1
 0 <= x313 <= 1
 0 <= x314 <= 1
 0 <= x315 <= 1
 0 <= x316 <= 1
 0 <= x317 <= 1
 0 <= x318 <= 1
 0 <= x319 <= 1
 0 <= x320 <= 1
 0 <= x321 <= 1
 0 <= x322 <= 1
 0 <= x323 <= 1
 0 <= x324 <= 1
 0 <= x325 <= 1
 0 <= x326 <= 1
 0 <= x327 <= 1
 0 <= x328 <= 1
 0 <= x329 <= 1
 0 <= x330 <= 1
 0 <= x331 <= 1
 0 <= x332 <= 1
 0 <= x333 <= 1
 0 <= x334 <= 1
 0 <= x335 <= 1
 0 <= x336 <= 1
 0 <= x337 <= 1
 0 <= x338 <= 1
 0 <= x339 <= 1
 0 <= x340 <= 1
 0 <= x341 <= 1
 0 <= x342 <= 1
 0 <= x343 <= 1
 0 <= x344 <= 1
 0 <= x345 <= 1
 0 <= x346 <= 1
 0 <= x347 <= 1
 0 <= x348 <= 1
 0 <= x349 <= 1
 0 <= x350 <= 1
 0 <= x351 <= 1
 0 <= x352 <= 1
 0 <= x353 <= 1
 0 <= x354 <= 1
 0 <= x355 <= 1
 0 <= x356 <= 1
 0 <= x357 <= 1
 0 <= x358 <= 1
 0 <= x359 <= 1
 0 <= x360 <= 1
 0 <= x361 <= 1
 0 <= x362 <= 1
 0 <= x363 <= 1
 0 <= x364 <= 1
 0 <= x365 <= 1
 0 <= x366 <= 1
 0 <= x367 <= 1
 0 <= x368 <= 1
 0 <= x369 <= 1
 0 <= x370 <= 1
 0 <= x371 <= 1
 0 <= x372 <= 1
 0 <= x373 <= 1
 0 <= x374 <= 1
 0 <= x375 <= 1
 0 <= x376 <= 1
 0 <= x377 <= 1
 0 <= x378 <= 1
 0 <= x379 <= 1
 0 <= x380 <= 1
 0 <= x381 <= 1
 0 <= x382 <= 1
 0 <= x383 <= 1
 0 <= x384 <= 1
 0 <= x385 <= 1
 0 <= x386 <= 1
 0 <= x387 <= 1
 0 <= x388 <= 1
 0 <= x389 <= 1
 0 <= x390 <= 1
 0 <= x391 <= 1
 0 <= x392 <= 1
 0 <= x393 <= 1
 0 <= x394 <= 1
 0 <= x395 <= 1
 0 <= x396 <= 1
 0 <= x397 <= 1
 0 <= x398 <= 1
 0 <= x399 <= 1
 0 <= x400 <= 1
 0 <= x401 <= 1
 0 <= x402 <= 1
 0 <= x403 <= 1
 0 <= x404 <= 1
 0 <= x405 <= 1
 0 <= x406 <= 1
 0 <= x407 <= 1
 0 <= x408 <= 1
 0 <= x409 <= 1
 0 <= x410 <= 1
 0 <= x411 <= 1
 0 <= x412 <= 1
 0 <= x413 <= 1
 0 <= x414 <= 1
 0 <= x415 <= 1
 0 <= x416 <= 1
 0 <= x417 <= 1
 0 <= x418 <= 1
 0 <= x419 <= 1
 0 <= x420 <= 1
 0 <= x421 <= 1
 0 <= x422 <= 1
 0 <= x423 <= 1
 0 <= x424 <= 1
 0 <= x425 <= 1
 0 <= x426 <= 1
 0 <= x427 <= 1
 0 <= x428 <= 1
 0 <= x429 <= 1
 0 <= x430 <= 1
 0 <= x431 <= 1
 0 <= x432 <= 1
 0 <= x433 <= 1
 0 <= x434 <= 1
 0 <= x435 <= 1
 0 <= x436 <= 1
 0 <= x437 <= 1
 0 <= x438 <= 1
 0 <= x439 <= 1
 0 <= x440 <= 1
 0 <= x441 <= 1
 0 <= x442 <= 1
 0 <= x443 <= 1
 0 <= x444 <= 1
 0 <= x445 <= 1
 0 <= x446 <= 1
 0 <= x447 <= 1
 0 <= x448 <= 1
 0 <= x449 <= 1
 0 <= x450 <= 1
 0 <= x451 <= 1
 0 <= x452 <= 1
 0 <= x453 <= 1
 0 <= x454 <= 1
 0 <= x455 <= 1
 0 <= x456 <= 1
 0 <= x457 <= 1
 0 <= x458 <= 1
 0 <= x459 <= 1
 0 <= x460 <= 1
 0 <= x461 <= 1
 0 <= x462 <= 1
 0 <= x463 <= 1
 0 <= x464 <= 1
 0 <= x465 <= 1
 0 <= x466 <= 1
 0 <= x467 <= 1
 0 <= x468 <= 1
 0 <= x469 <= 1
 0 <= x470 <= 1
 0 <= x471 <= 1
 0 <= x472 <= 1
 0 <= x473 <= 1
 0 <= x474 <= 1
 0 <= x475 <= 1
 0 <= x476 <= 1
 0 <= x477 <= 1
 0 <= x478 <= 1
 0 <= x479 <= 1
 0 <= x480 <= 1
 0 <= x481 <= 1
 0 <= x482 <= 1
 0 <= x483 <= 1
 0 <= x484 <= 1
 0 <= x485 <= 1
 0 <= x486 <= 1
 0 <= x487 <= 1
 0 <= x488 <= 1
 0 <= x489 <= 1
 0 <= x490 <= 1
 0 <= x491 <= 1
 0 <= x492 <= 1
 0 <= x493 <= 1
 0 <= x494 <= 1
 0 <= x495 <= 1
 0 <= x496 <= 1
 0 <= x497 <= 1
 0 <= x498 <= 1
 0 <= x499 <= 1
 0 <= x500 <= 1
 0 <= x501 <= 1
 0 <= x502 <= 1
 0 <= x503 <= 1
 0 <= x504 <= 1
 0 <= x505 <= 1
 0 <= x506 <= 1
 0 <= x507 <= 1
 0 <= x508 <= 1
 0 <= x509 <= 1
 0 <= x510 <= 1
 0 <= x511 <= 1
 0 <= x512 <= 1
 0 <= x513 <= 1
 0 <= x514 <= 1
 0 <= x515 <= 1
 0 <= x516 <= 1
 0 <= x517 <= 1
 0 <= x518 <= 1
 0 <= x519 <= 1
 0 <= x520 <= 1
 0 <= x521 <= 1
 0 <= x522 <= 1
 0 <= x523 <= 1
 0 <= x524 <= 1
 0 <= x525 <= 1
 0 <= x526 <= 1
 0 <= x527 <= 1
 0 <= x528 <= 1
 0 <= x529 <= 1
 0 <= x530 <= 1
 0 <= x531 <= 1
 0 <= x532 <= 1
 0 <= x533 <= 1
 0 <= x534 <= 1
 0 <= x535 <= 1
 0 <= x536 <= 1
 0 <= x537 <= 1
 0 <= x538 <= 1
 0 <= x539 <= 1
 0 <= x540 <= 1
 0 <= x541 <= 1
 0 <= x542 <= 1
 0 <= x543 <= 1
 0 <= x544 <= 1
 0 <= x545 <= 1
 0 <= x546 <= 1
 0 <= x547 <= 1
 0 <= x548 <= 1
 0 <= x549 <= 1
 0 <= x550 <= 1
 0 <= x551 <= 1
 0 <= x552 <= 1
 0 <= x553 <= 1
 0 <= x554 <= 1
 0 <= x555 <= 1
 0 <= x556 <= 1
 0 <= x557 <= 1
 0 <= x558 <= 1
 0 <= x559 <= 1
 0 <= x560 <= 1
 0 <= x561 <= 1
 0 <= x562 <= 1
 0 <= x563 <= 1
 0 <= x564 <= 1
 0 <= x565 <= 1
 0 <= x566 <= 1
 0 <= x567 <= 1
 0 <= x568 <= 1
 0 <= x569 <= 1
 0 <= x570 <= 1
 0 <= x571 <= 1
 0 <= x572 <= 1
 0 <= x573 <= 1
 0 <= x574 <= 1
 0 <= x575 <= 1
 0 <= x576 <= 1
 0 <= x577 <= 1
 0 <= x578 <= 1
 0 <= x579 <= 1
 0 <= x580 <= 1
 0 <= x581 <= 1
 0 <= x582 <= 1
 0 <= x583 <= 1
 0 <= x584 <= 1
 0 <= x585 <= 1
 0 <= x586 <= 1
 0 <= x587 <= 1
 0 <= x588 <= 1
 0 <= x589 <= 1
 0 <= x590 <= 1
 0 <= x591 <= 1
 0 <= x592 <= 1
 0 <= x593 <= 1
 0 <= x594 <= 1
 0 <= x595 <= 1
 0 <= x596 <= 1
 0 <= x597 <= 1
 0 <= x598 <= 1
 0 <= x599 <= 1
 0 <= x600 <= 1
 0 <= x601 <= 1
 0 <= x602 <= 1
 0 <= x603 <= 1
 0 <= x604 <= 1
 0 <= x605 <= 1
 0 <= x606 <= 1
 0 <= x607 <= 1
 0 <= x608 <= 1
 0 <= x609 <= 1
 0 <= x610 <= 1
 0 <= x611 <= 1
 0 <= x612 <= 1
 0 <= x613 <= 1
 0 <= x614 <= 1
 0 <= x615 <= 1
 0 <= x616 <= 1
 0 <= x617 <= 1
 0 <= x618 <= 1
 0 <= x619 <= 1
 0 <= x620 <= 1
 0 <= x621 <= 1
 0 <= x622 <= 1
 0 <= x623 <= 1
 0 <= x624 <= 1
 0 <= x625 <= 1
 0 <= x626 <= 1
 0 <= x627 <= 1
 0 <= x628 <= 1
 0 <= x629 <= 1
 0 <= x630 <= 1
 0 <= x631 <= 1
 0 <= x632 <= 1
 0 <= x633 <= 1
 0 <= x634 <= 1
 0 <= x635 <= 1
 0 <= x636 <= 1
 0 <= x637 <= 1
 0 <= x638 <= 1
 0 <= x639 <= 1
 0 <= x640 <= 1
 0 <= x641 <= 1
 0 <= x642 <= 1
 0 <= x643 <= 1
 0 <= x644 <= 1
 0 <= x645 <= 1
 0 <= x646 <= 1
 0 <= x647 <= 1
 0 <= x648 <= 1
 0 <= x649 <= 1
 0 <= x650 <= 1
 0 <= x651 <= 1
 0 <= x652 <= 1
 0 <= x653 <= 1
 0 <= x654 <= 1
 0 <= x655 <= 1
 0 <= x656 <= 1
 0 <= x657 <= 1
 0 <= x658 <= 1
 0 <= x659 <= 1
 0 <= x660 <= 1
Binaries
 x601  x602  x603  x604  x605  x606  x607  x608  x609  x610  x611  x612  x613 
 x614  x615  x616  x617  x618  x619  x620  x621  x622  x623  x624  x625  x626 
 x627  x628  x629  x630  x631  x632  x633  x634  x635  x636  x637  x638  x639 
 x640  x641  x642  x643  x644  x645  x646  x647  x648  x649  x650  x651  x652 
 x653  x654  x655  x656  x657  x658  x659  x660 
End
